language ESSENCE' 1.0

letting n_classes be 23
letting n_options be 5
letting n_cars be 200
letting quantity_Function1D be [4, 2, 26, 9, 1, 18, 33, 5, 12, 1, 2, 5, 17, 5, 1, 2, 17, 19, 1, 2, 2, 7, 9; int(1..23)]
letting usage_RelationAsSet_Explicit_1 be
        [1, 1, 1, 2, 2, 3, 4, 4, 5, 5, 6, 6, 7, 8, 8, 9, 10, 10, 10, 11, 11, 11, 12, 12, 13, 13, 14, 14, 15, 15, 15, 16,
         16, 16, 17, 18, 19, 19, 19, 19, 20, 20, 20, 20, 21, 21, 21, 22, 22, 23, 23;
             int(1..51)]
letting usage_RelationAsSet_Explicit_2 be
        [1, 2, 4, 4, 5, 4, 1, 4, 3, 5, 1, 2, 2, 3, 4, 5, 1, 3, 5, 1, 2, 3, 1, 3, 2, 4, 1, 5, 1, 3, 4, 2, 3, 5, 1, 3, 1,
         2, 3, 4, 1, 2, 3, 5, 2, 3, 4, 2, 3, 2, 5;
             int(1..51)]
letting blksize_Function1D be [2, 3, 3, 5, 5; int(1..5)]
letting maxcars_Function1D be [1, 2, 1, 2, 1; int(1..5)]
letting fin1 be 23
letting fin2 be 33
letting fin3 be 5
letting fin4 be 2
letting fin5 be 5
letting fin6 be 5
letting fin7 be 51
